10
0 47 74 38 57 49 60 55 50 38
47 0 55 39 66 45 49 81 28 71
74 55 0 44 76 63 55 66 72 30
38 39 44 0 86 74 77 76 44 21
57 66 76 86 0 26 54 98 80 59
49 45 63 74 26 0 64 18 57 33
60 49 55 77 54 64 0 45 64 41
55 81 66 76 98 18 45 0 42 76
50 28 72 44 80 57 64 42 0 59
38 71 30 21 59 33 41 76 59 0
